Problem:    
Rows:       163
Columns:    57 (42 integer, 42 binary)
Non-zeros:  496
Status:     INTEGER OPTIMAL
Objective:  value = 16.582733 (MINimum)

   No.   Row name        Activity     Lower bound   Upper bound
------ ------------    ------------- ------------- -------------
     1 r.5                   1016.58             0               
     2 r.6                   -986.38      -992.745               
     3 r.7                   16.5827             0               
     4 r.8                   13.6195      -985.483               
     5 r.9                   16.5827             0               
     6 r.10                 -991.197      -994.075               
     7 r.11                  1016.58             0               
     8 r.12                  -986.38      -989.258               
     9 r.13                  1016.58             0               
    10 r.14                 -993.635      -995.389               
    11 r.15                  16.5827             0               
    12 r.16                  13.6195      -990.414               
    13 r.17                  16.5827             0               
    14 r.18                  2.87757      -999.568               
    15 r.19                  1016.58             0               
    16 r.20                 -997.122      -998.402               
    17 r.21                  1016.58             0               
    18 r.22                 -998.246      -998.718               
    19 r.23                  16.5827             0               
    20 r.24                  6.36486      -993.649               
    21 r.25                  1016.58             0               
    22 r.26                 -999.528      -999.528               
    23 r.27                  16.5827             0               
    24 r.28                 0.472333      -995.812               
    25 r.29                  16.5827             0               
    26 r.30                  16.5827      -993.639               
    27 r.31                  1016.58             0               
    28 r.32                 -983.417      -997.037               
    29 r.33                        1             1             = 
    30 r.34                        1             1             = 
    31 r.35                        1             1             = 
    32 r.36                        1             1             = 
    33 r.37                        1             1             = 
    34 r.38                        1             1             = 
    35 r.39                        1             1             = 
    36 r.40                     1001             2               
    37 r.41                    -1001         -1001               
    38 r.42                  995.183      -994.075               
    39 r.43                     1001             2               
    40 r.44                    -1001         -1001               
    41 r.45                     2000      -989.258               
    42 r.46                        2             2               
    43 r.47                       -2         -1001               
    44 r.48                 -7.25468      -995.389               
    45 r.49                     1000             2               
    46 r.50                    -1000         -1001               
    47 r.51                     2000      -990.414               
    48 r.52                 -989.258      -992.745               
    49 r.53                   10.742      -985.483               
    50 r.54                 -989.258      -992.745               
    51 r.55                   10.742      -985.483               
    52 r.56                 -988.135      -992.745               
    53 r.57                  11.8654      -985.483               
    54 r.58                 -992.745      -992.745               
    55 r.59                  7.25468      -985.483               
    56 r.60                   2.9632      -993.639               
    57 r.61                 -997.037      -997.037               
    58 r.62                   2.9632      -993.639               
    59 r.63                 -997.037      -997.037               
    60 r.64                     1001             2               
    61 r.65                    -1001         -1001               
    62 r.66                  3004.82       7.25468               
    63 r.67                     1001             2               
    64 r.68                    -1001         -1001               
    65 r.69                     2000       14.5174               
    66 r.70                     1001             2               
    67 r.71                    -1001         -1001               
    68 r.72                  2997.56      -995.389               
    69 r.73                     1001             2               
    70 r.74                    -1001         -1001               
    71 r.75                     2000      -990.414               
    72 r.76                 -994.075      -994.075               
    73 r.77                 -989.258      -989.258               
    74 r.78                 -994.075      -994.075               
    75 r.79                 -989.258      -989.258               
    76 r.80                     1001             2               
    77 r.81                    -1001         -1001               
    78 r.82                  2992.95      -998.718               
    79 r.83                     1001             2               
    80 r.84                    -1001         -1001               
    81 r.85                  1992.75      -993.649               
    82 r.86                  -991.67      -994.075               
    83 r.87                 -986.853      -989.258               
    84 r.88                  -991.67      -994.075               
    85 r.89                 -986.853      -989.258               
    86 r.90                  1007.78      -993.639               
    87 r.91                  7.77992      -997.037               
    88 r.92                   2.9632      -993.639               
    89 r.93                 -997.037      -997.037               
    90 r.94                        2             2               
    91 r.95                       -2         -1001               
    92 r.96                  7.25468       7.25468               
    93 r.97                     1000             2               
    94 r.98                    -1000         -1001               
    95 r.99                     2000       14.5174               
    96 r.100                    1001             2               
    97 r.101                   -1001         -1001               
    98 r.102                 1002.44       5.92524               
    99 r.103                    1001             2               
   100 r.104                   -1001         -1001               
   101 r.105                    2000        10.742               
   102 r.106                    1001             2               
   103 r.107                   -1001         -1001               
   104 r.108                 1996.51      -999.568               
   105 r.109                    1001             2               
   106 r.110                   -1001         -1001               
   107 r.111                 1989.26      -998.402               
   108 r.112                       2             2               
   109 r.113                      -2         -1001               
   110 r.114                 -4.6107      -998.718               
   111 r.115                    1000             2               
   112 r.116                   -1000         -1001               
   113 r.117                 1992.75      -993.649               
   114 r.118                -994.107      -995.389               
   115 r.119                 13.1472      -990.414               
   116 r.120                -994.107      -995.389               
   117 r.121                 13.1472      -990.414               
   118 r.122                 10.2179      -993.639               
   119 r.123                -989.782      -997.037               
   120 r.124                  2.9632      -993.639               
   121 r.125                -997.037      -997.037               
   122 r.126                    1001             2               
   123 r.127                   -1001         -1001               
   124 r.128                 2003.49        4.6107               
   125 r.129                    1001             2               
   126 r.130                   -1001         -1001               
   127 r.131                 2010.74       9.58573               
   128 r.132                    1001             2               
   129 r.133                   -1001         -1001               
   130 r.134                 1998.88      -998.718               
   131 r.135                    1001             2               
   132 r.136                   -1001         -1001               
   133 r.137                 2003.49      -993.649               
   134 r.138                 2.40523      -999.568               
   135 r.139                -997.595      -998.402               
   136 r.140                 2.40523      -999.568               
   137 r.141                -997.595      -998.402               
   138 r.142                    1001             2               
   139 r.143                   -1001         -1001               
   140 r.144                 1007.05       5.92524               
   141 r.145                    1001             2               
   142 r.146                   -1001         -1001               
   143 r.147                 2007.25        10.742               
   144 r.148                       2             2               
   145 r.149                      -2         -1001               
   146 r.150                  4.6107        4.6107               
   147 r.151                    1000             2               
   148 r.152                   -1000         -1001               
   149 r.153                 2007.25       9.58573               
   150 r.154                    1001             2               
   151 r.155                   -1001         -1001               
   152 r.156                 2001.12      0.432422               
   153 r.157                    1001             2               
   154 r.158                   -1001         -1001               
   155 r.159                 1996.51       1.59804               
   156 r.160                -998.718      -998.718               
   157 r.161                 5.89252      -993.649               
   158 r.162                -998.718      -998.718               
   159 r.163                 5.89252      -993.649               
   160 r.164                 14.8286      -993.639               
   161 r.165                -985.171      -997.037               
   162 r.166                 10.2179      -993.639               
   163 r.167                -989.782      -997.037               

   No. Column name       Activity     Lower bound   Upper bound
------ ------------    ------------- ------------- -------------
     1 tt                    16.5827             0               
     2 s_1_1        *              1             0             1 
     3 t_1_1                  2.9632             0               
     4 s_2_1        *              0             0             1 
     5 t_2_1                  2.9632             0               
     6 s_1_2        *              0             0             1 
     7 t_1_2                 1007.78             0               
     8 s_2_2        *              1             0             1 
     9 t_2_2                  2.9632             0               
    10 s_1_3        *              1             0             1 
    11 t_1_3                 10.2179             0               
    12 s_2_3        *              0             0             1 
    13 t_2_3                  2.9632             0               
    14 s_1_4        *              0             0             1 
    15 t_1_4                 13.7052             0               
    16 s_2_4        *              1             0             1 
    17 t_2_4                 13.7052             0               
    18 s_1_5        *              1             0             1 
    19 t_1_5                 14.8286             0               
    20 s_2_5        *              0             0             1 
    21 t_2_5                 10.2179             0               
    22 s_1_6        *              1             0             1 
    23 t_1_6                 16.1104             0               
    24 s_2_6        *              0             0             1 
    25 t_2_6                 16.1104             0               
    26 s_1_7        *              0             0             1 
    27 t_1_7                       0             0               
    28 s_2_7        *              1             0             1 
    29 t_2_7                       0             0               
    30 r_1_1_2      *              1             0             1 
    31 u_1_1_2      *              0             0             1 
    32 r_2_1_2      *              1             0             1 
    33 u_2_1_2      *              0             0             1 
    34 r_1_1_3      *              0             0             1 
    35 u_1_1_3      *              0             0             1 
    36 r_2_1_3      *              1             0             1 
    37 u_2_1_3      *              0             0             1 
    38 r_1_2_3      *              1             0             1 
    39 u_1_2_3      *              0             0             1 
    40 r_2_2_3      *              1             0             1 
    41 u_2_2_3      *              0             0             1 
    42 r_1_2_5      *              1             0             1 
    43 u_1_2_5      *              0             0             1 
    44 r_2_2_5      *              1             0             1 
    45 u_2_2_5      *              0             0             1 
    46 r_1_3_4      *              1             0             1 
    47 u_1_3_4      *              0             0             1 
    48 r_2_3_4      *              1             0             1 
    49 u_2_3_4      *              0             0             1 
    50 r_1_3_5      *              0             0             1 
    51 u_1_3_5      *              0             0             1 
    52 r_2_3_5      *              1             0             1 
    53 u_2_3_5      *              0             0             1 
    54 r_1_4_5      *              1             0             1 
    55 u_1_4_5      *              0             0             1 
    56 r_2_4_5      *              1             0             1 
    57 u_2_4_5      *              0             0             1 

Integer feasibility conditions:

KKT.PE: max.abs.err = 2.27e-13 on row 107
        max.rel.err = 5.67e-17 on row 107
        High quality

KKT.PB: max.abs.err = 3.55e-14 on row 146
        max.rel.err = 6.33e-15 on row 146
        High quality

End of output
